c A SAT instance generated from a 3-CNF formula that had 20 clauses and 20 variables
p cnf 20 20
7 -4 12 0
11 1 -16 0
11 5 6 0
7 -14 5 0
9 5 18 0
-3 -14 2 0
17 20 -16 0
-8 6 20 0
-3 10 -12 0
-3 15 20 0
-14 8 7 0
18 -11 3 0
-18 10 12 0
-10 18 8 0
4 17 20 0
-14 17 2 0
-1 -17 3 0
-15 -13 -16 0
9 -17 6 0
-13 -10 19 0
